NAME: ./prFile/tspFile/tsp_file52.tsp
COMMENT: TSP file generated by Python
TYPE: TSP
DIMENSION: 40
EDGE_WEIGHT_TYPE: EUC_2D
NODE_COORD_SECTION
1 8 71
2 23 69
3 95 69
4 45 72
5 6 3
6 16 94
7 86 51
8 73 52
9 46 87
10 46 56
11 9 15
12 77 100
13 10 24
14 7 23
15 47 3
16 37 14
17 100 84
18 64 71
19 88 21
20 45 41
21 84 18
22 27 20
23 19 21
24 34 47
25 60 78
26 23 70
27 58 25
28 91 70
29 63 66
30 45 96
31 57 89
32 53 23
33 16 15
34 9 59
35 72 94
36 39 47
37 32 17
38 45 49
39 6 18
40 10 32
EOF
